StudentsNr = 10;
InstructorsNr = 26;
DaysNr = 2;
SlotsPerDay = 15;
AvailabilitySlotsLenght = 15;
RoomNr = 1;
ProgrammNr = 2;
DegreeNr = 1;
RolesNr = 2;
CoursesNr = 10;
InstructorsProgramm = [{2}, {1}, {1, 2}, {2}, {1, 2}, {1}, {1}, {1, 2}, {2}, {1, 2}, {2}, {1, 2}, {1, 2}, {1}, {2}, {1}, {1}, {1}, {1, 2}, {1}, {2}, {2}, {2}, {1}, {2}, {2}];
InstructorRolesPerProgramm = [|{2, 3, 5, 7, 12, 14, 16, 20}, {2, 5, 7, 8, 10, 12, 13, 14, 17, 18, 19, 24}|{3, 4, 5, 9, 12, 25, 26}, {5, 8, 9, 10, 11, 12, 13, 19, 21, 22}|];
InstructorsAvailability = [|1, 1, |1, 0, |1, 1, |1, 0, |0, 1, |0, 1, |0, 0, |0, 1, |1, 1, |0, 0, |1, 0, |1, 1, |0, 0, |0, 1, |1, 0, |1, 1, |1, 1, |1, 1, |0, 1, |1, 1, |0, 0, |0, 0, |1, 1, |0, 1, |1, 1, |0, 1|];
StudentsProgramm = [1, 1, 1, 2, 1, 2, 1, 1, 2, 2];
StudentsDegree = [1, 1, 1, 1, 1, 1, 1, 1, 1, 1];
StudentsSupervisorId = [20, 13, 16, 15, 12, 21, 7, 7, 19, 10];
StudentsCourseIds = [{3, 5, 7, 9}, {4, 5, 8, 10}, {3, 4, 6, 8}, {1, 2, 5, 6}, {2, 3, 7, 10}, {3, 8, 9, 10}, {3, 4, 9, 10}, {1, 3, 4, 8}, {1, 5, 7, 9}, {4, 6, 7, 9}];
StudentsAvailability = [|1, 1, |1, 1, |0, 0, |1, 1, |0, 0, |0, 1, |1, 1, |1, 1, |0, 0, |0, 1|];
TheoryticalMinCard = [0, 0, 0, 0, 0, 0, 0, 0, 0, 0];
CoursesInstructorIds = [{1, 2, 4, 6, 7, 12, 16, 17, 18, 19, 21, 22, 23, 24, 25, 26}, {5, 7, 10, 11, 12, 13, 17, 20, 21, 23, 25, 26}, {3, 5, 8, 10, 11, 12, 13, 16, 17, 22, 23, 24, 25, 26}, {1, 2, 4, 5, 9, 15, 16, 17, 20}, {1, 2, 9, 10, 12, 14, 19, 20, 21, 24, 26}, {2, 4, 5, 6, 8, 9, 11, 12, 13, 14, 15, 17, 18, 19, 23, 24, 25, 26}, {2, 3, 5, 6, 7, 8, 9, 10, 11, 14, 15, 17, 21, 23, 24}, {2, 3, 10, 12, 13, 14, 15, 16, 17, 24}, {2, 4, 6, 9, 10, 13, 14, 15, 17, 18, 20, 24}, {2, 3, 4, 6, 7, 8, 10, 12, 13, 14, 16, 17, 18, 20, 22, 23, 24}];
RolesDemands = [7, 8];
RolesContinuity = [];
ExamLen = [1, 1, 1, 1, 1, 1, 1, 1, 1, 1];
LunchTsMinLen = 0;
LunchStarts = [4..11, 19..26];
SupervisorAvailable = 0;
OptimalLunchLenght = [1, 1];
OptimalStartTs = [2, 0];
OptimalFinishTs = [0, 15];
MinimizeRooms = 200;
RolesSoftContinuity = [|1, 2|1, 0|];
SameDegreeInRoom = 10;
Mergeability = 0;
